NAME : mtspf.pid5776.gtsp.161061380.tour
COMMENT : Length = 161061380
COMMENT : Found by LKH [Keld Helsgaun] Tue Mar  4 13:30:26 2025
TYPE : TOUR
DIMENSION : 90
TOUR_SECTION
1
58
55
56
57
20
21
22
19
73
74
71
72
60
61
62
59
3
5
39
40
41
42
4
11
12
13
14
75
76
77
78
70
67
68
69
46
43
44
45
51
52
53
54
7
63
64
65
66
37
38
35
36
31
32
33
34
87
88
89
90
8
83
84
85
86
27
28
29
30
24
25
26
23
81
82
79
80
10
47
48
49
50
18
15
16
17
9
6
2
-1
EOF
